3 15
153 137 145 
0 84 91 68 10 45 28 37 37 21 60 17 98 3
1 96 84 13 26 21 61 49 71 19 21 62 88 1
2 90 50 98 20 99 91 81 19 83 100 71 44 2
3 14 55 90 1 67 48 81 29 91 63 87 61 3
4 27 12 4 62 72 13 61 30 80 51 59 66 2
5 27 69 35 16 44 70 49 47 45 28 64 3 2
6 91 49 48 75 96 2 6 34 49 50 45 64 3
7 77 23 18 62 50 100 10 31 13 11 4 9 3
8 12 85 65 51 17 18 8 75 32 73 74 87 1
9 84 50 53 96 13 51 7 43 85 91 81 10 1
10 9 99 1 46 86 84 85 53 67 69 77 100 3
11 77 19 41 29 14 40 66 84 43 32 30 71 1
12 45 44 5 86 66 37 29 48 4 23 83 34 2
13 12 32 52 78 93 17 79 4 79 35 94 62 3
14 49 4 21 31 94 65 72 83 26 3 68 71 3
